200
1000
165
165
165
164
164
163
162
162
161
161
160
160
159
158
156
156
155
155
154
154
154
153
152
151
151
151
150
149
149
147
147
147
146
145
144
144
142
142
141
141
141
141
138
138
138
138
138
138
136
136
135
135
135
135
134
134
134
134
133
133
133
132
132
132
131
130
130
129
128
128
126
126
126
126
125
124
123
123
122
121
121
121
120
119
118
117
116
116
114
114
112
112
111
111
111
111
110
109
108
108
108
106
106
106
105
105
103
103
103
103
102
102
102
102
101
101
101
101
101
101
99
99
99
98
97
97
95
95
95
94
93
92
92
91
91
90
90
88
88
88
86
86
86
85
84
84
84
83
83
83
82
81
81
80
80
80
79
78
77
76
76
75
74
73
73
73
72
71
71
70
69
69
69
69
69
67
67
67
67
66
66
65
63
62
62
62
60
60
60
60
60
60
59
58
58
58
58
58
57
57
